c *********************************
c * Circuit generated by BenCGen
c *
c * Parity_215
c *
c * Ports with 1 gate(s): 1
c * Ports with 2 gate(s): 215
c * Total gates: 216
c *********************************
p cnf 431 861
1 218 0
-1 -218 0
1 -217 0
218 -217 0
-1 -218 217 0
1 2 -219 0
-1 2 219 0
1 -2 219 0
-1 -2 -219 0
3 4 -220 0
-3 4 220 0
3 -4 220 0
-3 -4 -220 0
5 6 -221 0
-5 6 221 0
5 -6 221 0
-5 -6 -221 0
7 8 -222 0
-7 8 222 0
7 -8 222 0
-7 -8 -222 0
9 10 -223 0
-9 10 223 0
9 -10 223 0
-9 -10 -223 0
11 12 -224 0
-11 12 224 0
11 -12 224 0
-11 -12 -224 0
13 14 -225 0
-13 14 225 0
13 -14 225 0
-13 -14 -225 0
15 16 -226 0
-15 16 226 0
15 -16 226 0
-15 -16 -226 0
17 18 -227 0
-17 18 227 0
17 -18 227 0
-17 -18 -227 0
19 20 -228 0
-19 20 228 0
19 -20 228 0
-19 -20 -228 0
21 22 -229 0
-21 22 229 0
21 -22 229 0
-21 -22 -229 0
23 24 -230 0
-23 24 230 0
23 -24 230 0
-23 -24 -230 0
25 26 -231 0
-25 26 231 0
25 -26 231 0
-25 -26 -231 0
27 28 -232 0
-27 28 232 0
27 -28 232 0
-27 -28 -232 0
29 30 -233 0
-29 30 233 0
29 -30 233 0
-29 -30 -233 0
31 32 -234 0
-31 32 234 0
31 -32 234 0
-31 -32 -234 0
33 34 -235 0
-33 34 235 0
33 -34 235 0
-33 -34 -235 0
35 36 -236 0
-35 36 236 0
35 -36 236 0
-35 -36 -236 0
37 38 -237 0
-37 38 237 0
37 -38 237 0
-37 -38 -237 0
39 40 -238 0
-39 40 238 0
39 -40 238 0
-39 -40 -238 0
41 42 -239 0
-41 42 239 0
41 -42 239 0
-41 -42 -239 0
43 44 -240 0
-43 44 240 0
43 -44 240 0
-43 -44 -240 0
45 46 -241 0
-45 46 241 0
45 -46 241 0
-45 -46 -241 0
47 48 -242 0
-47 48 242 0
47 -48 242 0
-47 -48 -242 0
49 50 -243 0
-49 50 243 0
49 -50 243 0
-49 -50 -243 0
51 52 -244 0
-51 52 244 0
51 -52 244 0
-51 -52 -244 0
53 54 -245 0
-53 54 245 0
53 -54 245 0
-53 -54 -245 0
55 56 -246 0
-55 56 246 0
55 -56 246 0
-55 -56 -246 0
57 58 -247 0
-57 58 247 0
57 -58 247 0
-57 -58 -247 0
59 60 -248 0
-59 60 248 0
59 -60 248 0
-59 -60 -248 0
61 62 -249 0
-61 62 249 0
61 -62 249 0
-61 -62 -249 0
63 64 -250 0
-63 64 250 0
63 -64 250 0
-63 -64 -250 0
65 66 -251 0
-65 66 251 0
65 -66 251 0
-65 -66 -251 0
67 68 -252 0
-67 68 252 0
67 -68 252 0
-67 -68 -252 0
69 70 -253 0
-69 70 253 0
69 -70 253 0
-69 -70 -253 0
71 72 -254 0
-71 72 254 0
71 -72 254 0
-71 -72 -254 0
73 74 -255 0
-73 74 255 0
73 -74 255 0
-73 -74 -255 0
75 76 -256 0
-75 76 256 0
75 -76 256 0
-75 -76 -256 0
77 78 -257 0
-77 78 257 0
77 -78 257 0
-77 -78 -257 0
79 80 -258 0
-79 80 258 0
79 -80 258 0
-79 -80 -258 0
81 82 -259 0
-81 82 259 0
81 -82 259 0
-81 -82 -259 0
83 84 -260 0
-83 84 260 0
83 -84 260 0
-83 -84 -260 0
85 86 -261 0
-85 86 261 0
85 -86 261 0
-85 -86 -261 0
87 88 -262 0
-87 88 262 0
87 -88 262 0
-87 -88 -262 0
89 90 -263 0
-89 90 263 0
89 -90 263 0
-89 -90 -263 0
91 92 -264 0
-91 92 264 0
91 -92 264 0
-91 -92 -264 0
93 94 -265 0
-93 94 265 0
93 -94 265 0
-93 -94 -265 0
95 96 -266 0
-95 96 266 0
95 -96 266 0
-95 -96 -266 0
97 98 -267 0
-97 98 267 0
97 -98 267 0
-97 -98 -267 0
99 100 -268 0
-99 100 268 0
99 -100 268 0
-99 -100 -268 0
101 102 -269 0
-101 102 269 0
101 -102 269 0
-101 -102 -269 0
103 104 -270 0
-103 104 270 0
103 -104 270 0
-103 -104 -270 0
105 106 -271 0
-105 106 271 0
105 -106 271 0
-105 -106 -271 0
107 108 -272 0
-107 108 272 0
107 -108 272 0
-107 -108 -272 0
109 110 -273 0
-109 110 273 0
109 -110 273 0
-109 -110 -273 0
111 112 -274 0
-111 112 274 0
111 -112 274 0
-111 -112 -274 0
113 114 -275 0
-113 114 275 0
113 -114 275 0
-113 -114 -275 0
115 116 -276 0
-115 116 276 0
115 -116 276 0
-115 -116 -276 0
117 118 -277 0
-117 118 277 0
117 -118 277 0
-117 -118 -277 0
119 120 -278 0
-119 120 278 0
119 -120 278 0
-119 -120 -278 0
121 122 -279 0
-121 122 279 0
121 -122 279 0
-121 -122 -279 0
123 124 -280 0
-123 124 280 0
123 -124 280 0
-123 -124 -280 0
125 126 -281 0
-125 126 281 0
125 -126 281 0
-125 -126 -281 0
127 128 -282 0
-127 128 282 0
127 -128 282 0
-127 -128 -282 0
129 130 -283 0
-129 130 283 0
129 -130 283 0
-129 -130 -283 0
131 132 -284 0
-131 132 284 0
131 -132 284 0
-131 -132 -284 0
133 134 -285 0
-133 134 285 0
133 -134 285 0
-133 -134 -285 0
135 136 -286 0
-135 136 286 0
135 -136 286 0
-135 -136 -286 0
137 138 -287 0
-137 138 287 0
137 -138 287 0
-137 -138 -287 0
139 140 -288 0
-139 140 288 0
139 -140 288 0
-139 -140 -288 0
141 142 -289 0
-141 142 289 0
141 -142 289 0
-141 -142 -289 0
143 144 -290 0
-143 144 290 0
143 -144 290 0
-143 -144 -290 0
145 146 -291 0
-145 146 291 0
145 -146 291 0
-145 -146 -291 0
147 148 -292 0
-147 148 292 0
147 -148 292 0
-147 -148 -292 0
149 150 -293 0
-149 150 293 0
149 -150 293 0
-149 -150 -293 0
151 152 -294 0
-151 152 294 0
151 -152 294 0
-151 -152 -294 0
153 154 -295 0
-153 154 295 0
153 -154 295 0
-153 -154 -295 0
155 156 -296 0
-155 156 296 0
155 -156 296 0
-155 -156 -296 0
157 158 -297 0
-157 158 297 0
157 -158 297 0
-157 -158 -297 0
159 160 -298 0
-159 160 298 0
159 -160 298 0
-159 -160 -298 0
161 162 -299 0
-161 162 299 0
161 -162 299 0
-161 -162 -299 0
163 164 -300 0
-163 164 300 0
163 -164 300 0
-163 -164 -300 0
165 166 -301 0
-165 166 301 0
165 -166 301 0
-165 -166 -301 0
167 168 -302 0
-167 168 302 0
167 -168 302 0
-167 -168 -302 0
169 170 -303 0
-169 170 303 0
169 -170 303 0
-169 -170 -303 0
171 172 -304 0
-171 172 304 0
171 -172 304 0
-171 -172 -304 0
173 174 -305 0
-173 174 305 0
173 -174 305 0
-173 -174 -305 0
175 176 -306 0
-175 176 306 0
175 -176 306 0
-175 -176 -306 0
177 178 -307 0
-177 178 307 0
177 -178 307 0
-177 -178 -307 0
179 180 -308 0
-179 180 308 0
179 -180 308 0
-179 -180 -308 0
181 182 -309 0
-181 182 309 0
181 -182 309 0
-181 -182 -309 0
183 184 -310 0
-183 184 310 0
183 -184 310 0
-183 -184 -310 0
185 186 -311 0
-185 186 311 0
185 -186 311 0
-185 -186 -311 0
187 188 -312 0
-187 188 312 0
187 -188 312 0
-187 -188 -312 0
189 190 -313 0
-189 190 313 0
189 -190 313 0
-189 -190 -313 0
191 192 -314 0
-191 192 314 0
191 -192 314 0
-191 -192 -314 0
193 194 -315 0
-193 194 315 0
193 -194 315 0
-193 -194 -315 0
195 196 -316 0
-195 196 316 0
195 -196 316 0
-195 -196 -316 0
197 198 -317 0
-197 198 317 0
197 -198 317 0
-197 -198 -317 0
199 200 -318 0
-199 200 318 0
199 -200 318 0
-199 -200 -318 0
201 202 -319 0
-201 202 319 0
201 -202 319 0
-201 -202 -319 0
203 204 -320 0
-203 204 320 0
203 -204 320 0
-203 -204 -320 0
205 206 -321 0
-205 206 321 0
205 -206 321 0
-205 -206 -321 0
207 208 -322 0
-207 208 322 0
207 -208 322 0
-207 -208 -322 0
209 210 -323 0
-209 210 323 0
209 -210 323 0
-209 -210 -323 0
211 212 -324 0
-211 212 324 0
211 -212 324 0
-211 -212 -324 0
213 214 -325 0
-213 214 325 0
213 -214 325 0
-213 -214 -325 0
219 220 -326 0
-219 220 326 0
219 -220 326 0
-219 -220 -326 0
221 222 -327 0
-221 222 327 0
221 -222 327 0
-221 -222 -327 0
223 224 -328 0
-223 224 328 0
223 -224 328 0
-223 -224 -328 0
225 226 -329 0
-225 226 329 0
225 -226 329 0
-225 -226 -329 0
227 228 -330 0
-227 228 330 0
227 -228 330 0
-227 -228 -330 0
229 230 -331 0
-229 230 331 0
229 -230 331 0
-229 -230 -331 0
231 232 -332 0
-231 232 332 0
231 -232 332 0
-231 -232 -332 0
233 234 -333 0
-233 234 333 0
233 -234 333 0
-233 -234 -333 0
235 236 -334 0
-235 236 334 0
235 -236 334 0
-235 -236 -334 0
237 238 -335 0
-237 238 335 0
237 -238 335 0
-237 -238 -335 0
239 240 -336 0
-239 240 336 0
239 -240 336 0
-239 -240 -336 0
241 242 -337 0
-241 242 337 0
241 -242 337 0
-241 -242 -337 0
243 244 -338 0
-243 244 338 0
243 -244 338 0
-243 -244 -338 0
245 246 -339 0
-245 246 339 0
245 -246 339 0
-245 -246 -339 0
247 248 -340 0
-247 248 340 0
247 -248 340 0
-247 -248 -340 0
249 250 -341 0
-249 250 341 0
249 -250 341 0
-249 -250 -341 0
251 252 -342 0
-251 252 342 0
251 -252 342 0
-251 -252 -342 0
253 254 -343 0
-253 254 343 0
253 -254 343 0
-253 -254 -343 0
255 256 -344 0
-255 256 344 0
255 -256 344 0
-255 -256 -344 0
257 258 -345 0
-257 258 345 0
257 -258 345 0
-257 -258 -345 0
259 260 -346 0
-259 260 346 0
259 -260 346 0
-259 -260 -346 0
261 262 -347 0
-261 262 347 0
261 -262 347 0
-261 -262 -347 0
263 264 -348 0
-263 264 348 0
263 -264 348 0
-263 -264 -348 0
265 266 -349 0
-265 266 349 0
265 -266 349 0
-265 -266 -349 0
267 268 -350 0
-267 268 350 0
267 -268 350 0
-267 -268 -350 0
269 270 -351 0
-269 270 351 0
269 -270 351 0
-269 -270 -351 0
271 272 -352 0
-271 272 352 0
271 -272 352 0
-271 -272 -352 0
273 274 -353 0
-273 274 353 0
273 -274 353 0
-273 -274 -353 0
275 276 -354 0
-275 276 354 0
275 -276 354 0
-275 -276 -354 0
277 278 -355 0
-277 278 355 0
277 -278 355 0
-277 -278 -355 0
279 280 -356 0
-279 280 356 0
279 -280 356 0
-279 -280 -356 0
281 282 -357 0
-281 282 357 0
281 -282 357 0
-281 -282 -357 0
283 284 -358 0
-283 284 358 0
283 -284 358 0
-283 -284 -358 0
285 286 -359 0
-285 286 359 0
285 -286 359 0
-285 -286 -359 0
287 288 -360 0
-287 288 360 0
287 -288 360 0
-287 -288 -360 0
289 290 -361 0
-289 290 361 0
289 -290 361 0
-289 -290 -361 0
291 292 -362 0
-291 292 362 0
291 -292 362 0
-291 -292 -362 0
293 294 -363 0
-293 294 363 0
293 -294 363 0
-293 -294 -363 0
295 296 -364 0
-295 296 364 0
295 -296 364 0
-295 -296 -364 0
297 298 -365 0
-297 298 365 0
297 -298 365 0
-297 -298 -365 0
299 300 -366 0
-299 300 366 0
299 -300 366 0
-299 -300 -366 0
301 302 -367 0
-301 302 367 0
301 -302 367 0
-301 -302 -367 0
303 304 -368 0
-303 304 368 0
303 -304 368 0
-303 -304 -368 0
305 306 -369 0
-305 306 369 0
305 -306 369 0
-305 -306 -369 0
307 308 -370 0
-307 308 370 0
307 -308 370 0
-307 -308 -370 0
309 310 -371 0
-309 310 371 0
309 -310 371 0
-309 -310 -371 0
311 312 -372 0
-311 312 372 0
311 -312 372 0
-311 -312 -372 0
313 314 -373 0
-313 314 373 0
313 -314 373 0
-313 -314 -373 0
315 316 -374 0
-315 316 374 0
315 -316 374 0
-315 -316 -374 0
317 318 -375 0
-317 318 375 0
317 -318 375 0
-317 -318 -375 0
319 320 -376 0
-319 320 376 0
319 -320 376 0
-319 -320 -376 0
321 322 -377 0
-321 322 377 0
321 -322 377 0
-321 -322 -377 0
323 324 -378 0
-323 324 378 0
323 -324 378 0
-323 -324 -378 0
325 215 -379 0
-325 215 379 0
325 -215 379 0
-325 -215 -379 0
326 327 -380 0
-326 327 380 0
326 -327 380 0
-326 -327 -380 0
328 329 -381 0
-328 329 381 0
328 -329 381 0
-328 -329 -381 0
330 331 -382 0
-330 331 382 0
330 -331 382 0
-330 -331 -382 0
332 333 -383 0
-332 333 383 0
332 -333 383 0
-332 -333 -383 0
334 335 -384 0
-334 335 384 0
334 -335 384 0
-334 -335 -384 0
336 337 -385 0
-336 337 385 0
336 -337 385 0
-336 -337 -385 0
338 339 -386 0
-338 339 386 0
338 -339 386 0
-338 -339 -386 0
340 341 -387 0
-340 341 387 0
340 -341 387 0
-340 -341 -387 0
342 343 -388 0
-342 343 388 0
342 -343 388 0
-342 -343 -388 0
344 345 -389 0
-344 345 389 0
344 -345 389 0
-344 -345 -389 0
346 347 -390 0
-346 347 390 0
346 -347 390 0
-346 -347 -390 0
348 349 -391 0
-348 349 391 0
348 -349 391 0
-348 -349 -391 0
350 351 -392 0
-350 351 392 0
350 -351 392 0
-350 -351 -392 0
352 353 -393 0
-352 353 393 0
352 -353 393 0
-352 -353 -393 0
354 355 -394 0
-354 355 394 0
354 -355 394 0
-354 -355 -394 0
356 357 -395 0
-356 357 395 0
356 -357 395 0
-356 -357 -395 0
358 359 -396 0
-358 359 396 0
358 -359 396 0
-358 -359 -396 0
360 361 -397 0
-360 361 397 0
360 -361 397 0
-360 -361 -397 0
362 363 -398 0
-362 363 398 0
362 -363 398 0
-362 -363 -398 0
364 365 -399 0
-364 365 399 0
364 -365 399 0
-364 -365 -399 0
366 367 -400 0
-366 367 400 0
366 -367 400 0
-366 -367 -400 0
368 369 -401 0
-368 369 401 0
368 -369 401 0
-368 -369 -401 0
370 371 -402 0
-370 371 402 0
370 -371 402 0
-370 -371 -402 0
372 373 -403 0
-372 373 403 0
372 -373 403 0
-372 -373 -403 0
374 375 -404 0
-374 375 404 0
374 -375 404 0
-374 -375 -404 0
376 377 -405 0
-376 377 405 0
376 -377 405 0
-376 -377 -405 0
378 379 -406 0
-378 379 406 0
378 -379 406 0
-378 -379 -406 0
380 381 -407 0
-380 381 407 0
380 -381 407 0
-380 -381 -407 0
382 383 -408 0
-382 383 408 0
382 -383 408 0
-382 -383 -408 0
384 385 -409 0
-384 385 409 0
384 -385 409 0
-384 -385 -409 0
386 387 -410 0
-386 387 410 0
386 -387 410 0
-386 -387 -410 0
388 389 -411 0
-388 389 411 0
388 -389 411 0
-388 -389 -411 0
390 391 -412 0
-390 391 412 0
390 -391 412 0
-390 -391 -412 0
392 393 -413 0
-392 393 413 0
392 -393 413 0
-392 -393 -413 0
394 395 -414 0
-394 395 414 0
394 -395 414 0
-394 -395 -414 0
396 397 -415 0
-396 397 415 0
396 -397 415 0
-396 -397 -415 0
398 399 -416 0
-398 399 416 0
398 -399 416 0
-398 -399 -416 0
400 401 -417 0
-400 401 417 0
400 -401 417 0
-400 -401 -417 0
402 403 -418 0
-402 403 418 0
402 -403 418 0
-402 -403 -418 0
404 405 -419 0
-404 405 419 0
404 -405 419 0
-404 -405 -419 0
407 408 -420 0
-407 408 420 0
407 -408 420 0
-407 -408 -420 0
409 410 -421 0
-409 410 421 0
409 -410 421 0
-409 -410 -421 0
411 412 -422 0
-411 412 422 0
411 -412 422 0
-411 -412 -422 0
413 414 -423 0
-413 414 423 0
413 -414 423 0
-413 -414 -423 0
415 416 -424 0
-415 416 424 0
415 -416 424 0
-415 -416 -424 0
417 418 -425 0
-417 418 425 0
417 -418 425 0
-417 -418 -425 0
419 406 -426 0
-419 406 426 0
419 -406 426 0
-419 -406 -426 0
420 421 -427 0
-420 421 427 0
420 -421 427 0
-420 -421 -427 0
422 423 -428 0
-422 423 428 0
422 -423 428 0
-422 -423 -428 0
424 425 -429 0
-424 425 429 0
424 -425 429 0
-424 -425 -429 0
427 428 -430 0
-427 428 430 0
427 -428 430 0
-427 -428 -430 0
429 426 -431 0
-429 426 431 0
429 -426 431 0
-429 -426 -431 0
430 431 -216 0
-430 431 216 0
430 -431 216 0
-430 -431 -216 0
